NAME: test1382
TYPE: TSP
DIMENSION: 11
EDGE_WEIGHT_TYPE: EUC_2D
NODE_COORD_SECTION
1 51.69200089861313 19.667370476066893
2 95.44554429965521 18.78438470003009
3 29.347541403549947 79.71748470764288
4 10.545912113506162 42.84422793703497
5 86.17430705759553 6.030454967816324
6 34.20680890877472 92.50833855370102
7 19.07533480359451 76.37088565111692
8 61.469256805554465 17.679781464300415
9 37.74896826236531 81.71429188020774
10 71.79916724718512 17.90776011538672
11 44.61869077637822 2.770152658714131
EOF
